80 8
81 47
6 38
52 61
48 67
66 77
28 100
79 16
5 25
21 87
1 30
83 63
50 47
25 84
13 78
10 42
9 62
33 38
65 91
5 83
39 29
11 22
80 18
84 40
13 94
21 26
52 86
14 41
11 97
24 34
71 30
10 40
61 34
42 83
29 33
77 73
6 78
6 31
59 6
57 84
74 93
52 44
56 41
51 100
37 28
9 65
49 44
63 53
74 98
2 66
29 14
53 36
70 48
66 23
75 33
79 90
19 65
71 23
36 48
22 39
53 26
3 37
11 27
32 7
60 9
48 90
12 50
34 14
29 24
57 43
70 59
56 65
27 25
36 91
72 26
71 17
60 4
32 67
36 73
31 49
33 12
787 890
696 847
606 721
415 510
521 599
506 609
400 488
655 792
